(set-info :smt-lib-version 2.6)
(set-logic UF)
(set-info :source |
Generated by: Andrew Reynolds
Generated on: 2017-04-28
Generator: Sledgehammer, converted to v2.6 by CVC4
Application: Verfication goals in Isabelle
Target solver: CVC4, Z3
Publications: "A Decision Procedure for (Co)Datatypes" by Andrew Reynolds and Jasmin Blanchette, CADE 2015.
|)
(set-info :license "https://creativecommons.org/licenses/by/4.0/")
(set-info :category "industrial")
(set-info :status unknown)


(declare-sort Nat$ 0)
(declare-sort Nat_set$ 0)
(declare-sort Nat_nat_fun$ 0)
(declare-sort Num_num_fun$ 0)
(declare-sort Nat_bool_fun$ 0)
(declare-sort Num_bool_fun$ 0)
(declare-sort Enat_bool_fun$ 0)
(declare-sort Nat_llist_set$ 0)
(declare-sort Nat_llist_bool_fun$ 0)
(declare-sort Nat_nat_bool_fun_fun$ 0)
(declare-sort Num_num_bool_fun_fun$ 0)
(declare-sort Enat_enat_bool_fun_fun$ 0)
(declare-sort Nat_llist_llist_bool_fun$ 0)
(declare-sort Nat_llist$ 0)
(declare-fun lNil$ () Nat_llist$)
(declare-fun lhd$ (Nat_llist$) Nat$)
(declare-fun ltl$ (Nat_llist$) Nat_llist$)
(declare-fun lCons$ (Nat$ Nat_llist$) Nat_llist$)
(declare-sort Num$ 0)
(declare-fun one$ () Num$)
(declare-fun select$ (Num$) Num$)
(declare-fun bit0$ (Num$) Num$)
(declare-fun selecta$ (Num$) Num$)
(declare-fun bit1$ (Num$) Num$)
(declare-sort Nat_llist_llist$ 0)
(declare-fun lNil$a () Nat_llist_llist$)
(declare-fun lhd$a (Nat_llist_llist$) Nat_llist$)
(declare-fun ltl$a (Nat_llist_llist$) Nat_llist_llist$)
(declare-fun lCons$a (Nat_llist$ Nat_llist_llist$) Nat_llist_llist$)
(declare-sort Nat_option$ 0)
(declare-sort Enat$ 0)
(declare-fun none$ () Nat_option$)
(declare-fun the$ (Nat_option$) Nat$)
(declare-fun some$ (Nat$) Nat_option$)
(declare-fun rep_enat$ (Enat$) Nat_option$)
(declare-fun abs_enat$ (Nat_option$) Enat$)
(declare-fun n$ () Nat$)
(declare-fun p$ () Nat$)
(declare-fun n$a () Nat$)
(declare-fun na$ () Nat$)
(declare-fun uu$ (Nat_llist_set$) Nat_llist_bool_fun$)
(declare-fun dvd$ (Nat$) Nat_bool_fun$)
(declare-fun uua$ (Nat_set$) Nat_bool_fun$)
(declare-fun dvd$a (Enat$) Enat_bool_fun$)
(declare-fun less$ (Nat$) Nat_bool_fun$)
(declare-fun lset$ (Nat_llist$) Nat_set$)
(declare-fun one$a () Nat$)
(declare-fun one$b () Enat$)
(declare-fun less$a (Num$) Num_bool_fun$)
(declare-fun less$b (Enat$) Enat_bool_fun$)
(declare-fun lnull$ (Nat_llist$) Bool)
(declare-fun lset$a (Nat_llist_llist$) Nat_llist_set$)
(declare-fun prime$ (Nat$) Bool)
(declare-fun times$ (Nat$) Nat_nat_fun$)
(declare-fun member$ (Nat_llist$ Nat_llist_set$) Bool)
(declare-fun smooth$ (Nat$) Bool)
(declare-fun times$a (Num$) Num_num_fun$)
(declare-fun times$b (Enat$ Enat$) Enat$)
(declare-fun collect$ (Nat_llist_bool_fun$) Nat_llist_set$)
(declare-fun fun_app$ (Nat_llist_bool_fun$ Nat_llist$) Bool)
(declare-fun hamming$ () Nat_llist$)
(declare-fun less_eq$ () Nat_nat_bool_fun_fun$)
(declare-fun lmember$ (Nat_llist$) Nat_llist_llist_bool_fun$)
(declare-fun lsorted$ (Nat_llist$) Bool)
(declare-fun member$a (Nat$ Nat_set$) Bool)
(declare-fun numeral$ (Num$) Nat$)
(declare-fun collect$a (Nat_bool_fun$) Nat_set$)
(declare-fun fun_app$a (Nat_bool_fun$ Nat$) Bool)
(declare-fun fun_app$b (Nat_nat_fun$ Nat$) Nat$)
(declare-fun fun_app$c (Nat_llist_llist_bool_fun$ Nat_llist_llist$) Bool)
(declare-fun fun_app$d (Nat_nat_bool_fun_fun$ Nat$) Nat_bool_fun$)
(declare-fun fun_app$e (Num_bool_fun$ Num$) Bool)
(declare-fun fun_app$f (Num_num_fun$ Num$) Num$)
(declare-fun fun_app$g (Num_num_bool_fun_fun$ Num$) Num_bool_fun$)
(declare-fun fun_app$h (Enat_bool_fun$ Enat$) Bool)
(declare-fun fun_app$i (Enat_enat_bool_fun_fun$ Enat$) Enat_bool_fun$)
(declare-fun less_eq$a (Num$ Num$) Bool)
(declare-fun less_eq$b (Enat$) Enat_bool_fun$)
(declare-fun lmember$a (Nat$) Nat_llist_bool_fun$)
(declare-fun monotone$ (Nat_nat_bool_fun_fun$ Nat_nat_bool_fun_fun$ Nat_nat_fun$) Bool)
(declare-fun numeral$a (Num$) Enat$)
(declare-fun ldistinct$ (Nat_llist$) Bool)
(assert (forall ((?v0 Nat_llist_set$) (?v1 Nat_llist$)) (! (= (fun_app$ (uu$ ?v0) ?v1) (member$ ?v1 ?v0)) :pattern ((fun_app$ (uu$ ?v0) ?v1)))))
(assert (forall ((?v0 Nat_set$) (?v1 Nat$)) (! (= (fun_app$a (uua$ ?v0) ?v1) (member$a ?v1 ?v0)) :pattern ((fun_app$a (uua$ ?v0) ?v1)))))
(assert (not (member$a na$ (lset$ hamming$))))
(assert (or (= p$ (numeral$ (bit0$ one$))) (or (= p$ (numeral$ (bit1$ one$))) (= p$ (numeral$ (bit1$ (bit0$ one$)))))))
(assert (smooth$ n$))
(assert (smooth$ na$))
(assert (prime$ p$))
(assert (member$a n$a (lset$ hamming$)))
(assert (fun_app$a (dvd$ p$) na$))
(assert (forall ((?v0 Nat$)) (=> (and (fun_app$a (less$ ?v0) na$) (smooth$ ?v0)) (member$a ?v0 (lset$ hamming$))) ))
(assert (= na$ (fun_app$b (times$ p$) n$a)))
(assert (=> (forall ((?v0 Nat$)) (=> (= na$ (fun_app$b (times$ p$) ?v0)) false) ) false))
(assert (fun_app$a (less$ one$a) na$))
(assert (fun_app$a (less$ n$a) na$))
(assert (= (= hamming$ lNil$) false))
(assert (exists ((?v0 Nat$)) (and (prime$ ?v0) (fun_app$a (dvd$ ?v0) na$)) ))
(assert (ldistinct$ hamming$))
(assert (lsorted$ hamming$))
(assert (not (lnull$ hamming$)))
(assert (forall ((?v0 Nat_llist$) (?v1 Nat_llist_llist$)) (= (member$ ?v0 (lset$a ?v1)) (fun_app$c (lmember$ ?v0) ?v1)) ))
(assert (forall ((?v0 Nat$) (?v1 Nat_llist$)) (= (member$a ?v0 (lset$ ?v1)) (fun_app$ (lmember$a ?v0) ?v1)) ))
(assert (smooth$ n$a))
(assert (= (lsorted$ lNil$) true))
(assert (= (ldistinct$ lNil$) true))
(assert (forall ((?v0 Nat$) (?v1 Nat$)) (= (smooth$ (fun_app$b (times$ ?v0) ?v1)) (and (smooth$ ?v0) (smooth$ ?v1))) ))
(assert (fun_app$a (fun_app$d less_eq$ p$) (numeral$ (bit1$ (bit0$ one$)))))
(assert (forall ((?v0 Nat_llist$)) (! (= (lnull$ ?v0) (= ?v0 lNil$)) :pattern ((lnull$ ?v0)))))
(assert (forall ((?v0 Nat_llist$)) (! (= (fun_app$c (lmember$ ?v0) lNil$a) false) :pattern ((lmember$ ?v0)))))
(assert (forall ((?v0 Nat$)) (! (= (fun_app$ (lmember$a ?v0) lNil$) false) :pattern ((lmember$a ?v0)))))
(assert (forall ((?v0 Nat_llist$) (?v1 Nat_llist$)) (=> (and (=> (or (lnull$ ?v0) (lnull$ ?v1)) false) (=> (and (not (lnull$ ?v0)) (not (lnull$ ?v1))) false)) false) ))
(assert (forall ((?v0 Nat_llist$) (?v1 Nat_llist$)) (=> (and (=> (or (lnull$ ?v0) (lnull$ ?v1)) false) (=> (and (not (lnull$ ?v0)) (not (lnull$ ?v1))) false)) false) ))
(assert (forall ((?v0 Nat_llist$) (?v1 Nat_llist$)) (=> (and (=> (or (lnull$ ?v0) (lnull$ ?v1)) false) (=> (and (not (lnull$ ?v0)) (not (lnull$ ?v1))) false)) false) ))
(assert (forall ((?v0 Nat_llist$) (?v1 Nat_llist$)) (=> (and (=> (or (lnull$ ?v0) (lnull$ ?v1)) false) (=> (and (not (lnull$ ?v0)) (not (lnull$ ?v1))) false)) false) ))
(assert (forall ((?v0 Nat_llist_set$)) (=> (and (=> (forall ((?v1 Nat_llist$)) (=> (member$ ?v1 ?v0) (lnull$ ?v1)) ) false) (=> (not (forall ((?v1 Nat_llist$)) (=> (member$ ?v1 ?v0) (lnull$ ?v1)) )) false)) false) ))
(assert (forall ((?v0 Nat_llist$) (?v1 Nat_llist$)) (=> (and (=> (and (lnull$ ?v0) (lnull$ ?v1)) false) (=> (or (not (lnull$ ?v0)) (not (lnull$ ?v1))) false)) false) ))
(assert (forall ((?v0 Nat_llist$)) (=> (and (=> (lnull$ ?v0) false) (=> (not (lnull$ ?v0)) false)) false) ))
(assert (forall ((?v0 Nat_llist$)) (=> (= ?v0 lNil$) (lnull$ ?v0)) ))
(assert (forall ((?v0 Nat$) (?v1 Nat$)) (=> (and (prime$ ?v0) (fun_app$a (dvd$ ?v1) ?v0)) (or (= ?v1 one$a) (= ?v1 ?v0))) ))
(assert (forall ((?v0 Nat_llist$)) (=> (lnull$ ?v0) (= ?v0 lNil$)) ))
(assert (forall ((?v0 Nat_llist$) (?v1 Nat_llist$)) (=> (and (lsorted$ ?v0) (and (ldistinct$ ?v0) (and (lsorted$ ?v1) (and (ldistinct$ ?v1) (= (lset$ ?v0) (lset$ ?v1)))))) (= ?v0 ?v1)) ))
(assert (ldistinct$ lNil$))
(assert (lnull$ lNil$))
(assert (lsorted$ lNil$))
(assert (smooth$ (numeral$ (bit0$ one$))))
(assert (smooth$ (numeral$ (bit1$ (bit0$ one$)))))
(assert (smooth$ (numeral$ (bit1$ one$))))
(assert (forall ((?v0 Nat$) (?v1 Nat$)) (= (fun_app$a (dvd$ (numeral$ (bit0$ one$))) (fun_app$b (times$ ?v0) ?v1)) (or (fun_app$a (dvd$ (numeral$ (bit0$ one$))) ?v0) (fun_app$a (dvd$ (numeral$ (bit0$ one$))) ?v1))) ))
(assert (forall ((?v0 Num$)) (= (fun_app$a (less$ one$a) (numeral$ ?v0)) (fun_app$e (less$a one$) ?v0)) ))
(assert (forall ((?v0 Nat$) (?v1 Nat$) (?v2 Nat$)) (=> (prime$ ?v0) (= (fun_app$a (dvd$ ?v0) (fun_app$b (times$ ?v1) ?v2)) (or (fun_app$a (dvd$ ?v0) ?v1) (fun_app$a (dvd$ ?v0) ?v2)))) ))
(assert (forall ((?v0 Num$)) (= (= (numeral$ ?v0) one$a) (= ?v0 one$)) ))
(assert (forall ((?v0 Num$)) (= (= (numeral$a ?v0) one$b) (= ?v0 one$)) ))
(assert (forall ((?v0 Nat_llist_bool_fun$) (?v1 Nat_llist_bool_fun$)) (=> (forall ((?v2 Nat_llist$)) (= (fun_app$ ?v0 ?v2) (fun_app$ ?v1 ?v2)) ) (= (collect$ ?v0) (collect$ ?v1))) ))
(assert (forall ((?v0 Nat_bool_fun$) (?v1 Nat_bool_fun$)) (=> (forall ((?v2 Nat$)) (= (fun_app$a ?v0 ?v2) (fun_app$a ?v1 ?v2)) ) (= (collect$a ?v0) (collect$a ?v1))) ))
(assert (forall ((?v0 Nat_llist_set$)) (= (collect$ (uu$ ?v0)) ?v0) ))
(assert (forall ((?v0 Nat_set$)) (= (collect$a (uua$ ?v0)) ?v0) ))
(assert (forall ((?v0 Nat_llist$) (?v1 Nat_llist_bool_fun$)) (= (member$ ?v0 (collect$ ?v1)) (fun_app$ ?v1 ?v0)) ))
(assert (forall ((?v0 Nat$) (?v1 Nat_bool_fun$)) (= (member$a ?v0 (collect$a ?v1)) (fun_app$a ?v1 ?v0)) ))
(assert (forall ((?v0 Num$)) (= (= one$a (numeral$ ?v0)) (= one$ ?v0)) ))
(assert (forall ((?v0 Num$)) (= (= one$b (numeral$a ?v0)) (= one$ ?v0)) ))
(assert (forall ((?v0 Nat$) (?v1 Nat$)) (=> (and (fun_app$a (dvd$ ?v0) one$a) (fun_app$a (dvd$ ?v1) one$a)) (fun_app$a (dvd$ (fun_app$b (times$ ?v0) ?v1)) one$a)) ))
(assert (=> (forall ((?v0 Nat$)) (=> (and (prime$ ?v0) (and (fun_app$a (dvd$ ?v0) na$) (fun_app$a (fun_app$d less_eq$ ?v0) (numeral$ (bit1$ (bit0$ one$)))))) false) ) false))
(assert (forall ((?v0 Nat$)) (=> (and (prime$ ?v0) (fun_app$a (less$ (numeral$ (bit0$ one$))) ?v0)) (not (fun_app$a (dvd$ (numeral$ (bit0$ one$))) ?v0))) ))
(assert (forall ((?v0 Nat$) (?v1 Nat$)) (= (= one$a (fun_app$b (times$ ?v0) ?v1)) (and (= ?v0 one$a) (= ?v1 one$a))) ))
(assert (forall ((?v0 Nat$) (?v1 Nat$)) (= (= (fun_app$b (times$ ?v0) ?v1) one$a) (and (= ?v0 one$a) (= ?v1 one$a))) ))
(assert (forall ((?v0 Num$) (?v1 Num$)) (= (= (numeral$ ?v0) (numeral$ ?v1)) (= ?v0 ?v1)) ))
(assert (forall ((?v0 Num$) (?v1 Num$)) (= (= (numeral$a ?v0) (numeral$a ?v1)) (= ?v0 ?v1)) ))
(assert (forall ((?v0 Nat$)) (fun_app$a (dvd$ ?v0) ?v0) ))
(assert (forall ((?v0 Nat$)) (fun_app$a (dvd$ ?v0) ?v0) ))
(assert (forall ((?v0 Num$) (?v1 Num$)) (= (= (bit0$ ?v0) (bit0$ ?v1)) (= ?v0 ?v1)) ))
(assert (forall ((?v0 Num$) (?v1 Num$)) (= (= (bit1$ ?v0) (bit1$ ?v1)) (= ?v0 ?v1)) ))
(assert (forall ((?v0 Num$) (?v1 Num$)) (= (fun_app$a (fun_app$d less_eq$ (numeral$ ?v0)) (numeral$ ?v1)) (less_eq$a ?v0 ?v1)) ))
(assert (forall ((?v0 Num$) (?v1 Num$)) (= (fun_app$b (times$ (numeral$ ?v0)) (numeral$ ?v1)) (numeral$ (fun_app$f (times$a ?v0) ?v1))) ))
(assert (forall ((?v0 Num$) (?v1 Num$)) (= (times$b (numeral$a ?v0) (numeral$a ?v1)) (numeral$a (fun_app$f (times$a ?v0) ?v1))) ))
(assert (forall ((?v0 Nat$)) (= (fun_app$a (dvd$ ?v0) one$a) (= ?v0 one$a)) ))
(assert (forall ((?v0 Num$) (?v1 Num$)) (= (fun_app$a (less$ (numeral$ ?v0)) (numeral$ ?v1)) (fun_app$e (less$a ?v0) ?v1)) ))
(assert (forall ((?v0 Num$)) (= (fun_app$a (fun_app$d less_eq$ (numeral$ ?v0)) one$a) (less_eq$a ?v0 one$)) ))
(assert (forall ((?v0 Nat_nat_bool_fun_fun$) (?v1 Nat$) (?v2 Nat$)) (=> (and (forall ((?v3 Nat$) (?v4 Nat$)) (=> (fun_app$a (fun_app$d less_eq$ ?v3) ?v4) (fun_app$a (fun_app$d ?v0 ?v3) ?v4)) ) (=> (fun_app$a (fun_app$d ?v0 ?v1) ?v2) (fun_app$a (fun_app$d ?v0 ?v2) ?v1))) (fun_app$a (fun_app$d ?v0 ?v2) ?v1)) ))
(assert (forall ((?v0 Num_num_bool_fun_fun$) (?v1 Num$) (?v2 Num$)) (=> (and (forall ((?v3 Num$) (?v4 Num$)) (=> (less_eq$a ?v3 ?v4) (fun_app$e (fun_app$g ?v0 ?v3) ?v4)) ) (=> (fun_app$e (fun_app$g ?v0 ?v1) ?v2) (fun_app$e (fun_app$g ?v0 ?v2) ?v1))) (fun_app$e (fun_app$g ?v0 ?v2) ?v1)) ))
(assert (forall ((?v0 Enat_enat_bool_fun_fun$) (?v1 Enat$) (?v2 Enat$)) (=> (and (forall ((?v3 Enat$) (?v4 Enat$)) (=> (fun_app$h (less_eq$b ?v3) ?v4) (fun_app$h (fun_app$i ?v0 ?v3) ?v4)) ) (=> (fun_app$h (fun_app$i ?v0 ?v1) ?v2) (fun_app$h (fun_app$i ?v0 ?v2) ?v1))) (fun_app$h (fun_app$i ?v0 ?v2) ?v1)) ))
(assert (forall ((?v0 Nat$)) (fun_app$a (fun_app$d less_eq$ ?v0) ?v0) ))
(assert (forall ((?v0 Nat$) (?v1 Nat$)) (or (fun_app$a (fun_app$d less_eq$ ?v0) ?v1) (fun_app$a (fun_app$d less_eq$ ?v1) ?v0)) ))
(assert (forall ((?v0 Nat$) (?v1 Nat$) (?v2 Nat$)) (=> (and (fun_app$a (fun_app$d less_eq$ ?v0) ?v1) (fun_app$a (fun_app$d less_eq$ ?v1) ?v2)) (fun_app$a (fun_app$d less_eq$ ?v0) ?v2)) ))
(assert (forall ((?v0 Nat$) (?v1 Nat$)) (=> (and (fun_app$a (fun_app$d less_eq$ ?v0) ?v1) (fun_app$a (fun_app$d less_eq$ ?v1) ?v0)) (= ?v0 ?v1)) ))
(assert (forall ((?v0 Nat$) (?v1 Nat$)) (=> (= ?v0 ?v1) (fun_app$a (fun_app$d less_eq$ ?v0) ?v1)) ))
(assert (fun_app$a (fun_app$d less_eq$ one$a) one$a))
(assert (forall ((?v0 Nat$) (?v1 Nat$)) (=> (and (fun_app$a (fun_app$d less_eq$ ?v0) ?v1) (not (= ?v0 ?v1))) (fun_app$a (less$ ?v0) ?v1)) ))
(assert (forall ((?v0 Nat$) (?v1 Nat$)) (=> (fun_app$a (less$ ?v0) ?v1) (fun_app$a (fun_app$d less_eq$ ?v0) ?v1)) ))
(assert (forall ((?v0 Nat$) (?v1 Nat$)) (=> (or (fun_app$a (less$ ?v0) ?v1) (= ?v0 ?v1)) (fun_app$a (fun_app$d less_eq$ ?v0) ?v1)) ))
(assert (forall ((?v0 Nat_nat_fun$) (?v1 Nat$) (?v2 Nat$)) (=> (and (forall ((?v3 Nat$) (?v4 Nat$)) (=> (fun_app$a (less$ ?v3) ?v4) (fun_app$a (less$ (fun_app$b ?v0 ?v3)) (fun_app$b ?v0 ?v4))) ) (fun_app$a (fun_app$d less_eq$ ?v1) ?v2)) (fun_app$a (fun_app$d less_eq$ (fun_app$b ?v0 ?v1)) (fun_app$b ?v0 ?v2))) ))
(assert (forall ((?v0 Nat$) (?v1 Nat$)) (! (= (fun_app$a (fun_app$d less_eq$ ?v0) ?v1) (or (fun_app$a (less$ ?v0) ?v1) (= ?v0 ?v1))) :pattern ((fun_app$a (fun_app$d less_eq$ ?v0) ?v1)))))
(assert (forall ((?v0 Nat$) (?v1 Nat$)) (! (= (fun_app$a (less$ ?v0) ?v1) (and (fun_app$a (fun_app$d less_eq$ ?v0) ?v1) (not (= ?v0 ?v1)))) :pattern ((fun_app$a (less$ ?v0) ?v1)))))
(assert (forall ((?v0 Nat$)) (fun_app$a (fun_app$d less_eq$ ?v0) (fun_app$b (times$ ?v0) ?v0)) ))
(assert (forall ((?v0 Nat$)) (fun_app$a (fun_app$d less_eq$ ?v0) (fun_app$b (times$ ?v0) (fun_app$b (times$ ?v0) ?v0))) ))
(assert (forall ((?v0 Nat$) (?v1 Nat$) (?v2 Nat$)) (=> (fun_app$a (fun_app$d less_eq$ ?v0) ?v1) (fun_app$a (fun_app$d less_eq$ (fun_app$b (times$ ?v0) ?v2)) (fun_app$b (times$ ?v1) ?v2))) ))
(assert (forall ((?v0 Nat$) (?v1 Nat$) (?v2 Nat$)) (=> (fun_app$a (fun_app$d less_eq$ ?v0) ?v1) (fun_app$a (fun_app$d less_eq$ (fun_app$b (times$ ?v2) ?v0)) (fun_app$b (times$ ?v2) ?v1))) ))
(assert (forall ((?v0 Nat$) (?v1 Nat$) (?v2 Nat$) (?v3 Nat$)) (=> (and (fun_app$a (fun_app$d less_eq$ ?v0) ?v1) (fun_app$a (fun_app$d less_eq$ ?v2) ?v3)) (fun_app$a (fun_app$d less_eq$ (fun_app$b (times$ ?v0) ?v2)) (fun_app$b (times$ ?v1) ?v3))) ))
(assert (forall ((?v0 Num$)) (fun_app$a (fun_app$d less_eq$ one$a) (numeral$ ?v0)) ))
(assert (forall ((?v0 Nat$)) (=> (prime$ ?v0) (fun_app$a (fun_app$d less_eq$ one$a) ?v0)) ))
(assert (forall ((?v0 Nat$)) (=> (prime$ ?v0) (fun_app$a (fun_app$d less_eq$ (numeral$ (bit0$ one$))) ?v0)) ))
(assert (forall ((?v0 Enat$)) (fun_app$h (dvd$a ?v0) ?v0) ))
(assert (forall ((?v0 Nat$)) (fun_app$a (dvd$ ?v0) ?v0) ))
(assert (forall ((?v0 Enat$) (?v1 Enat$) (?v2 Enat$)) (=> (and (fun_app$h (dvd$a ?v0) ?v1) (fun_app$h (dvd$a ?v1) ?v2)) (fun_app$h (dvd$a ?v0) ?v2)) ))
(assert (forall ((?v0 Nat$) (?v1 Nat$) (?v2 Nat$)) (=> (and (fun_app$a (dvd$ ?v0) ?v1) (fun_app$a (dvd$ ?v1) ?v2)) (fun_app$a (dvd$ ?v0) ?v2)) ))
(assert (forall ((?v0 Nat$)) (not (and (fun_app$a (dvd$ ?v0) ?v0) (not (fun_app$a (dvd$ ?v0) ?v0)))) ))
(assert (forall ((?v0 Nat$)) (not (and (fun_app$a (dvd$ ?v0) ?v0) (not (fun_app$a (dvd$ ?v0) ?v0)))) ))
(assert (forall ((?v0 Nat$) (?v1 Nat$)) (=> (and (not (= ?v0 ?v1)) (fun_app$a (dvd$ ?v0) ?v1)) (and (fun_app$a (dvd$ ?v0) ?v1) (not (fun_app$a (dvd$ ?v1) ?v0)))) ))
(assert (forall ((?v0 Nat$) (?v1 Nat$)) (=> (and (not (= ?v0 ?v1)) (fun_app$a (dvd$ ?v1) ?v0)) (and (fun_app$a (dvd$ ?v1) ?v0) (not (fun_app$a (dvd$ ?v0) ?v1)))) ))
(assert (forall ((?v0 Nat$) (?v1 Nat$)) (=> (fun_app$a (dvd$ ?v0) ?v1) (or (and (fun_app$a (dvd$ ?v0) ?v1) (not (fun_app$a (dvd$ ?v1) ?v0))) (= ?v0 ?v1))) ))
(assert (forall ((?v0 Nat$) (?v1 Nat$)) (! (=> (fun_app$a (dvd$ ?v0) ?v1) (= (fun_app$a (dvd$ ?v1) ?v0) (= ?v1 ?v0))) :pattern ((fun_app$a (dvd$ ?v1) ?v0)))))
(assert (forall ((?v0 Nat$) (?v1 Nat$)) (=> (and (fun_app$a (dvd$ ?v0) ?v1) (not (= ?v0 ?v1))) (and (fun_app$a (dvd$ ?v0) ?v1) (not (fun_app$a (dvd$ ?v1) ?v0)))) ))
(assert (forall ((?v0 Nat$) (?v1 Nat$) (?v2 Nat$)) (=> (and (fun_app$a (dvd$ ?v0) ?v1) (fun_app$a (dvd$ ?v1) ?v2)) (fun_app$a (dvd$ ?v0) ?v2)) ))
(assert (forall ((?v0 Nat$) (?v1 Nat$) (?v2 Nat$)) (=> (and (fun_app$a (dvd$ ?v0) ?v1) (fun_app$a (dvd$ ?v1) ?v2)) (fun_app$a (dvd$ ?v0) ?v2)) ))
(assert (forall ((?v0 Nat$) (?v1 Nat$) (?v2 Nat$)) (=> (and (fun_app$a (dvd$ ?v0) ?v1) (fun_app$a (dvd$ ?v2) ?v0)) (fun_app$a (dvd$ ?v2) ?v1)) ))
(assert (forall ((?v0 Nat$) (?v1 Nat$)) (=> (and (fun_app$a (dvd$ ?v0) ?v1) (fun_app$a (dvd$ ?v1) ?v0)) (= ?v0 ?v1)) ))
(assert (forall ((?v0 Nat$) (?v1 Nat$)) (=> (and (fun_app$a (dvd$ ?v0) ?v1) (fun_app$a (dvd$ ?v1) ?v0)) (= ?v0 ?v1)) ))
(assert (forall ((?v0 Nat$) (?v1 Nat$)) (=> (and (fun_app$a (dvd$ ?v0) ?v1) (fun_app$a (dvd$ ?v1) ?v0)) (= ?v0 ?v1)) ))
(assert (forall ((?v0 Nat$) (?v1 Nat$)) (=> (and (fun_app$a (dvd$ ?v0) ?v1) (fun_app$a (dvd$ ?v1) ?v0)) (= ?v1 ?v0)) ))
(assert (forall ((?v0 Nat$) (?v1 Nat$) (?v2 Nat$)) (=> (and (fun_app$a (dvd$ ?v0) ?v1) (and (fun_app$a (dvd$ ?v1) ?v2) (not (fun_app$a (dvd$ ?v2) ?v1)))) (and (fun_app$a (dvd$ ?v0) ?v2) (not (fun_app$a (dvd$ ?v2) ?v0)))) ))
(assert (forall ((?v0 Nat$) (?v1 Nat$) (?v2 Nat$)) (=> (and (fun_app$a (dvd$ ?v0) ?v1) (and (fun_app$a (dvd$ ?v1) ?v2) (not (fun_app$a (dvd$ ?v2) ?v1)))) (and (fun_app$a (dvd$ ?v0) ?v2) (not (fun_app$a (dvd$ ?v2) ?v0)))) ))
(assert (forall ((?v0 Nat$) (?v1 Nat$) (?v2 Nat$)) (=> (and (fun_app$a (dvd$ ?v0) ?v1) (and (fun_app$a (dvd$ ?v2) ?v0) (not (fun_app$a (dvd$ ?v0) ?v2)))) (and (fun_app$a (dvd$ ?v2) ?v1) (not (fun_app$a (dvd$ ?v1) ?v2)))) ))
(assert (forall ((?v0 Nat$) (?v1 Nat$) (?v2 Nat$)) (=> (and (fun_app$a (dvd$ ?v0) ?v1) (= ?v1 ?v2)) (fun_app$a (dvd$ ?v0) ?v2)) ))
(assert (forall ((?v0 Nat$) (?v1 Nat$)) (=> (and (fun_app$a (dvd$ ?v0) ?v1) (not (fun_app$a (dvd$ ?v1) ?v0))) (not (and (fun_app$a (dvd$ ?v1) ?v0) (not (fun_app$a (dvd$ ?v0) ?v1))))) ))
(assert (forall ((?v0 Nat$) (?v1 Nat$)) (=> (and (fun_app$a (dvd$ ?v0) ?v1) (not (fun_app$a (dvd$ ?v1) ?v0))) (not (= ?v0 ?v1))) ))
(assert (forall ((?v0 Nat$) (?v1 Nat$)) (=> (and (fun_app$a (dvd$ ?v0) ?v1) (not (fun_app$a (dvd$ ?v1) ?v0))) (not (= ?v0 ?v1))) ))
(assert (forall ((?v0 Nat$) (?v1 Nat$)) (=> (and (fun_app$a (dvd$ ?v0) ?v1) (not (fun_app$a (dvd$ ?v1) ?v0))) (not (= ?v1 ?v0))) ))
(assert (forall ((?v0 Nat$) (?v1 Nat$)) (=> (and (fun_app$a (dvd$ ?v0) ?v1) (not (fun_app$a (dvd$ ?v1) ?v0))) (fun_app$a (dvd$ ?v0) ?v1)) ))
(assert (forall ((?v0 Nat$) (?v1 Nat$)) (=> (and (fun_app$a (dvd$ ?v0) ?v1) (not (fun_app$a (dvd$ ?v1) ?v0))) (fun_app$a (dvd$ ?v0) ?v1)) ))
(assert (forall ((?v0 Nat$) (?v1 Nat$)) (=> (and (fun_app$a (dvd$ ?v0) ?v1) (not (fun_app$a (dvd$ ?v1) ?v0))) (fun_app$a (dvd$ ?v0) ?v1)) ))
(assert (forall ((?v0 Nat$) (?v1 Nat$)) (=> (and (fun_app$a (dvd$ ?v0) ?v1) (not (fun_app$a (dvd$ ?v1) ?v0))) (= (not (and (fun_app$a (dvd$ ?v1) ?v0) (not (fun_app$a (dvd$ ?v0) ?v1)))) true)) ))
(assert (forall ((?v0 Nat$) (?v1 Nat$) (?v2 Bool)) (=> (and (fun_app$a (dvd$ ?v0) ?v1) (not (fun_app$a (dvd$ ?v1) ?v0))) (= (=> (and (fun_app$a (dvd$ ?v1) ?v0) (not (fun_app$a (dvd$ ?v0) ?v1))) ?v2) true)) ))
(assert (forall ((?v0 Nat$) (?v1 Nat$)) (=> (and (fun_app$a (dvd$ ?v0) ?v1) (not (fun_app$a (dvd$ ?v1) ?v0))) (= (= ?v0 ?v1) false)) ))
(assert (forall ((?v0 Nat$) (?v1 Nat$)) (=> (and (fun_app$a (dvd$ ?v0) ?v1) (not (fun_app$a (dvd$ ?v1) ?v0))) (= (= ?v1 ?v0) false)) ))
(assert (forall ((?v0 Nat$) (?v1 Nat$) (?v2 Nat$)) (=> (and (and (fun_app$a (dvd$ ?v0) ?v1) (not (fun_app$a (dvd$ ?v1) ?v0))) (fun_app$a (dvd$ ?v1) ?v2)) (and (fun_app$a (dvd$ ?v0) ?v2) (not (fun_app$a (dvd$ ?v2) ?v0)))) ))
(assert (forall ((?v0 Nat$) (?v1 Nat$) (?v2 Nat$)) (=> (and (and (fun_app$a (dvd$ ?v0) ?v1) (not (fun_app$a (dvd$ ?v1) ?v0))) (fun_app$a (dvd$ ?v1) ?v2)) (and (fun_app$a (dvd$ ?v0) ?v2) (not (fun_app$a (dvd$ ?v2) ?v0)))) ))
(assert (forall ((?v0 Nat$) (?v1 Nat$) (?v2 Nat$)) (=> (and (and (fun_app$a (dvd$ ?v0) ?v1) (not (fun_app$a (dvd$ ?v1) ?v0))) (fun_app$a (dvd$ ?v2) ?v0)) (and (fun_app$a (dvd$ ?v2) ?v1) (not (fun_app$a (dvd$ ?v1) ?v2)))) ))
(assert (forall ((?v0 Nat$) (?v1 Nat$)) (=> (and (and (fun_app$a (dvd$ ?v0) ?v1) (not (fun_app$a (dvd$ ?v1) ?v0))) (and (fun_app$a (dvd$ ?v1) ?v0) (not (fun_app$a (dvd$ ?v0) ?v1)))) false) ))
(assert (forall ((?v0 Nat$) (?v1 Nat$)) (=> (and (and (fun_app$a (dvd$ ?v0) ?v1) (not (fun_app$a (dvd$ ?v1) ?v0))) (and (fun_app$a (dvd$ ?v1) ?v0) (not (fun_app$a (dvd$ ?v0) ?v1)))) false) ))
(assert (forall ((?v0 Nat$) (?v1 Nat$)) (=> (and (and (fun_app$a (dvd$ ?v0) ?v1) (not (fun_app$a (dvd$ ?v1) ?v0))) (and (fun_app$a (dvd$ ?v1) ?v0) (not (fun_app$a (dvd$ ?v0) ?v1)))) false) ))
(assert (forall ((?v0 Nat$) (?v1 Nat$) (?v2 Nat$)) (=> (and (and (fun_app$a (dvd$ ?v0) ?v1) (not (fun_app$a (dvd$ ?v1) ?v0))) (and (fun_app$a (dvd$ ?v1) ?v2) (not (fun_app$a (dvd$ ?v2) ?v1)))) (and (fun_app$a (dvd$ ?v0) ?v2) (not (fun_app$a (dvd$ ?v2) ?v0)))) ))
(assert (forall ((?v0 Nat$) (?v1 Nat$) (?v2 Nat$)) (=> (and (and (fun_app$a (dvd$ ?v0) ?v1) (not (fun_app$a (dvd$ ?v1) ?v0))) (and (fun_app$a (dvd$ ?v1) ?v2) (not (fun_app$a (dvd$ ?v2) ?v1)))) (and (fun_app$a (dvd$ ?v0) ?v2) (not (fun_app$a (dvd$ ?v2) ?v0)))) ))
(assert (forall ((?v0 Nat$) (?v1 Nat$) (?v2 Nat$)) (=> (and (and (fun_app$a (dvd$ ?v0) ?v1) (not (fun_app$a (dvd$ ?v1) ?v0))) (and (fun_app$a (dvd$ ?v2) ?v0) (not (fun_app$a (dvd$ ?v0) ?v2)))) (and (fun_app$a (dvd$ ?v2) ?v1) (not (fun_app$a (dvd$ ?v1) ?v2)))) ))
(assert (forall ((?v0 Nat$) (?v1 Nat$) (?v2 Nat$)) (=> (and (and (fun_app$a (dvd$ ?v0) ?v1) (not (fun_app$a (dvd$ ?v1) ?v0))) (= ?v1 ?v2)) (and (fun_app$a (dvd$ ?v0) ?v2) (not (fun_app$a (dvd$ ?v2) ?v0)))) ))
(assert (forall ((?v0 Nat$) (?v1 Nat$)) (=> (and (and (fun_app$a (dvd$ ?v0) ?v1) (not (fun_app$a (dvd$ ?v1) ?v0))) (=> (not false) (and (fun_app$a (dvd$ ?v1) ?v0) (not (fun_app$a (dvd$ ?v0) ?v1))))) false) ))
(assert (forall ((?v0 Nat$) (?v1 Nat$)) (=> (= ?v0 ?v1) (fun_app$a (dvd$ ?v0) ?v1)) ))
(assert (forall ((?v0 Nat$) (?v1 Nat$) (?v2 Nat$)) (=> (and (= ?v0 ?v1) (fun_app$a (dvd$ ?v1) ?v2)) (fun_app$a (dvd$ ?v0) ?v2)) ))
(assert (forall ((?v0 Nat$) (?v1 Nat$) (?v2 Nat$)) (=> (and (= ?v0 ?v1) (and (fun_app$a (dvd$ ?v1) ?v2) (not (fun_app$a (dvd$ ?v2) ?v1)))) (and (fun_app$a (dvd$ ?v0) ?v2) (not (fun_app$a (dvd$ ?v2) ?v0)))) ))
(assert (forall ((?v0 Nat$) (?v1 Nat$)) (= (fun_app$a (dvd$ ?v0) ?v1) (or (and (fun_app$a (dvd$ ?v0) ?v1) (not (fun_app$a (dvd$ ?v1) ?v0))) (= ?v0 ?v1))) ))
(assert (forall ((?v0 Nat$) (?v1 Nat$)) (= (fun_app$a (dvd$ ?v0) ?v1) (or (and (fun_app$a (dvd$ ?v0) ?v1) (not (fun_app$a (dvd$ ?v1) ?v0))) (= ?v0 ?v1))) ))
(assert (forall ((?v0 Nat$) (?v1 Nat$)) (= (fun_app$a (dvd$ ?v0) ?v1) (or (and (fun_app$a (dvd$ ?v0) ?v1) (not (fun_app$a (dvd$ ?v1) ?v0))) (= ?v1 ?v0))) ))
(assert (forall ((?v0 Nat$) (?v1 Nat$)) (= (and (fun_app$a (dvd$ ?v0) ?v1) (not (fun_app$a (dvd$ ?v1) ?v0))) (and (fun_app$a (dvd$ ?v0) ?v1) (not (fun_app$a (dvd$ ?v1) ?v0)))) ))
(assert (forall ((?v0 Nat$) (?v1 Nat$)) (= (and (fun_app$a (dvd$ ?v0) ?v1) (not (fun_app$a (dvd$ ?v1) ?v0))) (and (fun_app$a (dvd$ ?v0) ?v1) (not (= ?v0 ?v1)))) ))
(assert (forall ((?v0 Nat$) (?v1 Nat$)) (= (and (fun_app$a (dvd$ ?v0) ?v1) (not (fun_app$a (dvd$ ?v1) ?v0))) (and (fun_app$a (dvd$ ?v0) ?v1) (not (= ?v0 ?v1)))) ))
(assert (forall ((?v0 Nat$) (?v1 Nat$)) (= (and (fun_app$a (dvd$ ?v0) ?v1) (not (fun_app$a (dvd$ ?v1) ?v0))) (and (fun_app$a (dvd$ ?v0) ?v1) (not (= ?v1 ?v0)))) ))
(assert (forall ((?v0 Nat$) (?v1 Nat$)) (= (= ?v0 ?v1) (and (fun_app$a (dvd$ ?v0) ?v1) (fun_app$a (dvd$ ?v1) ?v0))) ))
(assert (forall ((?v0 Nat$)) (not (fun_app$a (less$ ?v0) ?v0)) ))
(assert (forall ((?v0 Nat$) (?v1 Nat$)) (=> (and (not (= ?v0 ?v1)) (and (=> (fun_app$a (less$ ?v0) ?v1) false) (=> (fun_app$a (less$ ?v1) ?v0) false))) false) ))
(assert (forall ((?v0 Nat$)) (=> (fun_app$a (less$ ?v0) ?v0) false) ))
(assert (forall ((?v0 Nat$) (?v1 Nat$)) (=> (fun_app$a (less$ ?v0) ?v1) (not (= ?v1 ?v0))) ))
(assert (forall ((?v0 Nat$) (?v1 Nat$)) (=> (fun_app$a (less$ ?v0) ?v1) (not (= ?v0 ?v1))) ))
(assert (forall ((?v0 Nat_bool_fun$) (?v1 Nat$)) (=> (forall ((?v2 Nat$)) (=> (forall ((?v3 Nat$)) (=> (fun_app$a (less$ ?v3) ?v2) (fun_app$a ?v0 ?v3)) ) (fun_app$a ?v0 ?v2)) ) (fun_app$a ?v0 ?v1)) ))
(assert (forall ((?v0 Nat_bool_fun$) (?v1 Nat$)) (=> (forall ((?v2 Nat$)) (=> (not (fun_app$a ?v0 ?v2)) (exists ((?v3 Nat$)) (and (fun_app$a (less$ ?v3) ?v2) (not (fun_app$a ?v0 ?v3))) )) ) (fun_app$a ?v0 ?v1)) ))
(assert (forall ((?v0 Nat$) (?v1 Nat$) (?v2 Nat_nat_bool_fun_fun$)) (=> (and (=> (fun_app$a (less$ ?v0) ?v1) (fun_app$a (fun_app$d ?v2 ?v1) ?v0)) (and (=> (= ?v0 ?v1) (fun_app$a (fun_app$d ?v2 ?v1) ?v0)) (=> (fun_app$a (less$ ?v1) ?v0) (fun_app$a (fun_app$d ?v2 ?v1) ?v0)))) (fun_app$a (fun_app$d ?v2 ?v1) ?v0)) ))
(assert (forall ((?v0 Nat$) (?v1 Nat$)) (= (not (= ?v0 ?v1)) (or (fun_app$a (less$ ?v0) ?v1) (fun_app$a (less$ ?v1) ?v0))) ))
(assert (not (fun_app$a (less$ one$a) one$a)))
(assert (forall ((?v0 Enat$) (?v1 Enat$)) (fun_app$h (dvd$a ?v0) (times$b ?v0 ?v1)) ))
(assert (forall ((?v0 Nat$) (?v1 Nat$)) (fun_app$a (dvd$ ?v0) (fun_app$b (times$ ?v0) ?v1)) ))
(assert (forall ((?v0 Enat$) (?v1 Enat$)) (fun_app$h (dvd$a ?v0) (times$b ?v1 ?v0)) ))
(assert (forall ((?v0 Nat$) (?v1 Nat$)) (fun_app$a (dvd$ ?v0) (fun_app$b (times$ ?v1) ?v0)) ))
(assert (forall ((?v0 Enat$) (?v1 Enat$) (?v2 Enat$)) (=> (fun_app$h (dvd$a ?v0) ?v1) (fun_app$h (dvd$a ?v0) (times$b ?v2 ?v1))) ))
(assert (forall ((?v0 Nat$) (?v1 Nat$) (?v2 Nat$)) (=> (fun_app$a (dvd$ ?v0) ?v1) (fun_app$a (dvd$ ?v0) (fun_app$b (times$ ?v2) ?v1))) ))
(assert (forall ((?v0 Enat$) (?v1 Enat$) (?v2 Enat$)) (=> (fun_app$h (dvd$a ?v0) ?v1) (fun_app$h (dvd$a ?v0) (times$b ?v1 ?v2))) ))
(assert (forall ((?v0 Nat$) (?v1 Nat$) (?v2 Nat$)) (=> (fun_app$a (dvd$ ?v0) ?v1) (fun_app$a (dvd$ ?v0) (fun_app$b (times$ ?v1) ?v2))) ))
(assert (forall ((?v0 Enat$) (?v1 Enat$) (?v2 Enat$) (?v3 Enat$)) (=> (and (fun_app$h (dvd$a ?v0) ?v1) (fun_app$h (dvd$a ?v2) ?v3)) (fun_app$h (dvd$a (times$b ?v0 ?v2)) (times$b ?v1 ?v3))) ))
(assert (forall ((?v0 Nat$) (?v1 Nat$) (?v2 Nat$) (?v3 Nat$)) (=> (and (fun_app$a (dvd$ ?v0) ?v1) (fun_app$a (dvd$ ?v2) ?v3)) (fun_app$a (dvd$ (fun_app$b (times$ ?v0) ?v2)) (fun_app$b (times$ ?v1) ?v3))) ))
(assert (forall ((?v0 Enat$) (?v1 Enat$)) (=> (and (fun_app$h (dvd$a ?v0) ?v1) (forall ((?v2 Enat$)) (=> (= ?v1 (times$b ?v0 ?v2)) false) )) false) ))
(assert (forall ((?v0 Nat$) (?v1 Nat$)) (=> (and (fun_app$a (dvd$ ?v0) ?v1) (forall ((?v2 Nat$)) (=> (= ?v1 (fun_app$b (times$ ?v0) ?v2)) false) )) false) ))
(assert (forall ((?v0 Enat$) (?v1 Enat$) (?v2 Enat$)) (=> (fun_app$h (dvd$a (times$b ?v0 ?v1)) ?v2) (fun_app$h (dvd$a ?v0) ?v2)) ))
(assert (forall ((?v0 Nat$) (?v1 Nat$) (?v2 Nat$)) (=> (fun_app$a (dvd$ (fun_app$b (times$ ?v0) ?v1)) ?v2) (fun_app$a (dvd$ ?v0) ?v2)) ))
(assert (forall ((?v0 Enat$) (?v1 Enat$) (?v2 Enat$)) (=> (fun_app$h (dvd$a (times$b ?v0 ?v1)) ?v2) (fun_app$h (dvd$a ?v1) ?v2)) ))
(assert (forall ((?v0 Nat$) (?v1 Nat$) (?v2 Nat$)) (=> (fun_app$a (dvd$ (fun_app$b (times$ ?v0) ?v1)) ?v2) (fun_app$a (dvd$ ?v1) ?v2)) ))
(assert (forall ((?v0 Enat$) (?v1 Enat$) (?v2 Enat$)) (=> (= ?v0 (times$b ?v1 ?v2)) (fun_app$h (dvd$a ?v1) ?v0)) ))
(assert (forall ((?v0 Nat$) (?v1 Nat$) (?v2 Nat$)) (=> (= ?v0 (fun_app$b (times$ ?v1) ?v2)) (fun_app$a (dvd$ ?v1) ?v0)) ))
(assert (forall ((?v0 Enat$) (?v1 Enat$)) (= (fun_app$h (dvd$a ?v0) ?v1) (exists ((?v2 Enat$)) (= ?v1 (times$b ?v0 ?v2)) )) ))
(assert (forall ((?v0 Nat$) (?v1 Nat$)) (= (fun_app$a (dvd$ ?v0) ?v1) (exists ((?v2 Nat$)) (= ?v1 (fun_app$b (times$ ?v0) ?v2)) )) ))
(assert (forall ((?v0 Enat$)) (fun_app$h (dvd$a one$b) ?v0) ))
(assert (forall ((?v0 Nat$)) (fun_app$a (dvd$ one$a) ?v0) ))
(assert (forall ((?v0 Nat$) (?v1 Nat$)) (=> (fun_app$a (dvd$ ?v0) one$a) (fun_app$a (dvd$ ?v0) ?v1)) ))
(assert (forall ((?v0 Nat$) (?v1 Nat$)) (=> (and (fun_app$a (dvd$ ?v0) ?v1) (fun_app$a (dvd$ ?v1) one$a)) (fun_app$a (dvd$ ?v0) one$a)) ))
(assert (forall ((?v0 Num$)) (not (= one$ (bit0$ ?v0))) ))
(assert (forall ((?v0 Num$) (?v1 Num$)) (not (= (bit0$ ?v0) (bit1$ ?v1))) ))
(assert (forall ((?v0 Num$)) (not (= one$ (bit1$ ?v0))) ))
(assert (forall ((?v0 Nat$)) (= (fun_app$b (times$ one$a) ?v0) ?v0) ))
(assert (forall ((?v0 Nat$)) (= (fun_app$b (times$ ?v0) one$a) ?v0) ))
(assert (forall ((?v0 Nat$)) (exists ((?v1 Nat$)) (and (prime$ ?v1) (fun_app$a (less$ ?v0) ?v1)) ) ))
(assert (not (prime$ one$a)))
(assert (forall ((?v0 Nat$)) (= (smooth$ ?v0) (forall ((?v1 Nat$)) (=> (and (prime$ ?v1) (fun_app$a (dvd$ ?v1) ?v0)) (fun_app$a (fun_app$d less_eq$ ?v1) (numeral$ (bit1$ (bit0$ one$))))) )) ))
(assert (forall ((?v0 Nat$) (?v1 Nat$)) (=> (and (fun_app$a (less$ one$a) ?v0) (fun_app$a (less$ one$a) ?v1)) (fun_app$a (less$ one$a) (fun_app$b (times$ ?v0) ?v1))) ))
(assert (forall ((?v0 Num$)) (not (fun_app$a (less$ (numeral$ ?v0)) one$a)) ))
(assert (forall ((?v0 Nat$) (?v1 Nat$) (?v2 Nat$)) (=> (fun_app$a (dvd$ ?v0) one$a) (= (fun_app$a (dvd$ ?v1) (fun_app$b (times$ ?v2) ?v0)) (fun_app$a (dvd$ ?v1) ?v2))) ))
(assert (forall ((?v0 Nat$) (?v1 Nat$) (?v2 Nat$)) (=> (fun_app$a (dvd$ ?v0) one$a) (= (fun_app$a (dvd$ (fun_app$b (times$ ?v1) ?v0)) ?v2) (fun_app$a (dvd$ ?v1) ?v2))) ))
(assert (forall ((?v0 Nat$) (?v1 Nat$) (?v2 Nat$)) (=> (fun_app$a (dvd$ ?v0) one$a) (= (= (fun_app$b (times$ ?v0) ?v1) (fun_app$b (times$ ?v0) ?v2)) (= ?v1 ?v2))) ))
(assert (forall ((?v0 Nat$) (?v1 Nat$) (?v2 Nat$)) (=> (fun_app$a (dvd$ ?v0) one$a) (= (= (fun_app$b (times$ ?v1) ?v0) (fun_app$b (times$ ?v2) ?v0)) (= ?v1 ?v2))) ))
(assert (forall ((?v0 Nat$)) (= (fun_app$b (times$ ?v0) (numeral$ one$)) ?v0) ))
(assert (forall ((?v0 Enat$)) (= (times$b ?v0 (numeral$a one$)) ?v0) ))
(assert (forall ((?v0 Nat$)) (= (fun_app$b (times$ (numeral$ one$)) ?v0) ?v0) ))
(assert (forall ((?v0 Enat$)) (= (times$b (numeral$a one$) ?v0) ?v0) ))
(assert (= (numeral$ one$) one$a))
(assert (= (numeral$a one$) one$b))
(assert (forall ((?v0 Num$)) (=> (and (=> (= ?v0 one$) false) (and (forall ((?v1 Num$)) (=> (= ?v0 (bit0$ ?v1)) false) ) (forall ((?v1 Num$)) (=> (= ?v0 (bit1$ ?v1)) false) ))) false) ))
(assert (= (numeral$ one$) one$a))
(assert (forall ((?v0 Nat$) (?v1 Nat$) (?v2 Nat$)) (=> (and (prime$ ?v0) (fun_app$a (dvd$ ?v0) (fun_app$b (times$ ?v1) ?v2))) (or (fun_app$a (dvd$ ?v0) ?v1) (fun_app$a (dvd$ ?v0) ?v2))) ))
(assert (forall ((?v0 Nat$)) (=> (not (= ?v0 one$a)) (exists ((?v1 Nat$)) (and (prime$ ?v1) (fun_app$a (dvd$ ?v1) ?v0)) )) ))
(assert (forall ((?v0 Nat$)) (=> (prime$ ?v0) (fun_app$a (less$ one$a) ?v0)) ))
(assert (forall ((?v0 Nat$) (?v1 Nat$)) (=> (prime$ (fun_app$b (times$ ?v0) ?v1)) (or (= ?v0 one$a) (= ?v1 one$a))) ))
(assert (forall ((?v0 Num$)) (fun_app$a (dvd$ (numeral$ (bit0$ one$))) (numeral$ (bit0$ ?v0))) ))
(assert (prime$ (numeral$ (bit0$ one$))))
(assert (forall ((?v0 Nat$)) (= (prime$ ?v0) (and (fun_app$a (less$ one$a) ?v0) (forall ((?v1 Nat$)) (=> (fun_app$a (dvd$ ?v1) ?v0) (or (= ?v1 one$a) (= ?v1 ?v0))) ))) ))
(assert (forall ((?v0 Nat$)) (=> (and (fun_app$a (less$ one$a) ?v0) (not (prime$ ?v0))) (exists ((?v1 Nat$) (?v2 Nat$)) (and (= ?v0 (fun_app$b (times$ ?v1) ?v2)) (and (fun_app$a (less$ one$a) ?v1) (and (fun_app$a (less$ ?v1) ?v0) (and (fun_app$a (less$ one$a) ?v2) (fun_app$a (less$ ?v2) ?v0))))) )) ))
(assert (forall ((?v0 Nat$)) (=> (and (fun_app$a (dvd$ (numeral$ (bit0$ one$))) ?v0) (forall ((?v1 Nat$)) (=> (= ?v0 (fun_app$b (times$ (numeral$ (bit0$ one$))) ?v1)) false) )) false) ))
(assert (forall ((?v0 Nat$) (?v1 Nat$)) (=> (fun_app$a (dvd$ (numeral$ (bit0$ one$))) (fun_app$b (times$ ?v0) ?v1)) (or (fun_app$a (dvd$ (numeral$ (bit0$ one$))) ?v0) (fun_app$a (dvd$ (numeral$ (bit0$ one$))) ?v1))) ))
(assert (not (fun_app$a (dvd$ (numeral$ (bit0$ one$))) one$a)))
(assert (forall ((?v0 Num$)) (not (fun_app$a (dvd$ (numeral$ (bit0$ one$))) (numeral$ (bit1$ ?v0)))) ))
(assert (forall ((?v0 Num$)) (! (= (fun_app$e (less$a one$) (bit1$ ?v0)) true) :pattern ((bit1$ ?v0)))))
(assert (forall ((?v0 Num$) (?v1 Num$)) (! (= (fun_app$e (less$a (bit1$ ?v0)) (bit0$ ?v1)) (fun_app$e (less$a ?v0) ?v1)) :pattern ((fun_app$e (less$a (bit1$ ?v0)) (bit0$ ?v1))))))
(assert (forall ((?v0 Num$)) (! (= (fun_app$e (less$a one$) (bit0$ ?v0)) true) :pattern ((bit0$ ?v0)))))
(assert (forall ((?v0 Num$) (?v1 Num$)) (! (= (fun_app$e (less$a (bit1$ ?v0)) (bit1$ ?v1)) (fun_app$e (less$a ?v0) ?v1)) :pattern ((fun_app$e (less$a (bit1$ ?v0)) (bit1$ ?v1))))))
(assert (forall ((?v0 Num$)) (! (= (fun_app$e (less$a ?v0) one$) false) :pattern ((less$a ?v0)))))
(assert (forall ((?v0 Num$) (?v1 Num$)) (! (= (fun_app$e (less$a (bit0$ ?v0)) (bit0$ ?v1)) (fun_app$e (less$a ?v0) ?v1)) :pattern ((fun_app$e (less$a (bit0$ ?v0)) (bit0$ ?v1))))))
(assert (forall ((?v0 Nat$)) (= (fun_app$a (dvd$ ?v0) one$a) (= ?v0 one$a)) ))
(assert (forall ((?v0 Num$) (?v1 Num$)) (= (fun_app$h (less$b (numeral$a ?v0)) (numeral$a ?v1)) (fun_app$a (less$ (numeral$ ?v0)) (numeral$ ?v1))) ))
(assert (forall ((?v0 Num$) (?v1 Num$)) (= (= (bit0$ ?v0) (bit0$ ?v1)) (= ?v0 ?v1)) ))
(assert (forall ((?v0 Num$) (?v1 Num$)) (= (= (bit1$ ?v0) (bit1$ ?v1)) (= ?v0 ?v1)) ))
(assert (forall ((?v0 Num$)) (= (= (bit0$ ?v0) one$) false) ))
(assert (forall ((?v0 Num$)) (= (= one$ (bit0$ ?v0)) false) ))
(assert (forall ((?v0 Num$) (?v1 Num$)) (= (= (bit0$ ?v0) (bit1$ ?v1)) false) ))
(assert (forall ((?v0 Num$) (?v1 Num$)) (= (= (bit1$ ?v0) (bit0$ ?v1)) false) ))
(assert (forall ((?v0 Num$)) (= (= (bit1$ ?v0) one$) false) ))
(assert (forall ((?v0 Num$)) (= (= one$ (bit1$ ?v0)) false) ))
(assert (forall ((?v0 Num$) (?v1 Num$)) (! (= (fun_app$f (times$a (bit0$ ?v0)) (bit0$ ?v1)) (bit0$ (bit0$ (fun_app$f (times$a ?v0) ?v1)))) :pattern ((fun_app$f (times$a (bit0$ ?v0)) (bit0$ ?v1))))))
(assert (forall ((?v0 Num$)) (! (= (fun_app$f (times$a ?v0) one$) ?v0) :pattern ((times$a ?v0)))))
(assert (forall ((?v0 Num$)) (! (= (fun_app$f (times$a one$) ?v0) ?v0) :pattern ((fun_app$f (times$a one$) ?v0)))))
(assert (forall ((?v0 Num$) (?v1 Num$)) (! (= (less_eq$a (bit0$ ?v0) (bit0$ ?v1)) (less_eq$a ?v0 ?v1)) :pattern ((less_eq$a (bit0$ ?v0) (bit0$ ?v1))))))
(assert (forall ((?v0 Num$)) (! (= (less_eq$a one$ ?v0) true) :pattern ((less_eq$a one$ ?v0)))))
(assert (forall ((?v0 Num$) (?v1 Num$)) (! (= (less_eq$a (bit1$ ?v0) (bit1$ ?v1)) (less_eq$a ?v0 ?v1)) :pattern ((less_eq$a (bit1$ ?v0) (bit1$ ?v1))))))
(assert (forall ((?v0 Num$) (?v1 Num$) (?v2 Nat$)) (= (fun_app$b (times$ (numeral$ ?v0)) (fun_app$b (times$ (numeral$ ?v1)) ?v2)) (fun_app$b (times$ (numeral$ (fun_app$f (times$a ?v0) ?v1))) ?v2)) ))
(assert (forall ((?v0 Num$) (?v1 Num$) (?v2 Enat$)) (= (times$b (numeral$a ?v0) (times$b (numeral$a ?v1) ?v2)) (times$b (numeral$a (fun_app$f (times$a ?v0) ?v1)) ?v2)) ))
(assert (forall ((?v0 Num$) (?v1 Num$)) (! (= (fun_app$f (times$a (bit1$ ?v0)) (bit0$ ?v1)) (bit0$ (fun_app$f (times$a (bit1$ ?v0)) ?v1))) :pattern ((fun_app$f (times$a (bit1$ ?v0)) (bit0$ ?v1))))))
(assert (forall ((?v0 Num$) (?v1 Num$)) (! (= (fun_app$f (times$a (bit0$ ?v0)) (bit1$ ?v1)) (bit0$ (fun_app$f (times$a ?v0) (bit1$ ?v1)))) :pattern ((fun_app$f (times$a (bit0$ ?v0)) (bit1$ ?v1))))))
(assert (forall ((?v0 Num$)) (! (= (less_eq$a (bit0$ ?v0) one$) false) :pattern ((bit0$ ?v0)))))
(assert (forall ((?v0 Num$) (?v1 Num$)) (= (fun_app$h (less_eq$b (numeral$a ?v0)) (numeral$a ?v1)) (fun_app$a (fun_app$d less_eq$ (numeral$ ?v0)) (numeral$ ?v1))) ))
(assert (forall ((?v0 Num$) (?v1 Num$)) (! (= (less_eq$a (bit0$ ?v0) (bit1$ ?v1)) (less_eq$a ?v0 ?v1)) :pattern ((less_eq$a (bit0$ ?v0) (bit1$ ?v1))))))
(assert (forall ((?v0 Num$)) (! (= (less_eq$a (bit1$ ?v0) one$) false) :pattern ((bit1$ ?v0)))))
(assert (forall ((?v0 Num$) (?v1 Num$)) (! (= (less_eq$a (bit1$ ?v0) (bit0$ ?v1)) (fun_app$e (less$a ?v0) ?v1)) :pattern ((less_eq$a (bit1$ ?v0) (bit0$ ?v1))))))
(assert (forall ((?v0 Num$) (?v1 Num$)) (! (= (fun_app$e (less$a (bit0$ ?v0)) (bit1$ ?v1)) (less_eq$a ?v0 ?v1)) :pattern ((fun_app$e (less$a (bit0$ ?v0)) (bit1$ ?v1))))))
(assert (forall ((?v0 Enat_bool_fun$) (?v1 Enat$)) (=> (forall ((?v2 Enat$)) (=> (forall ((?v3 Enat$)) (=> (fun_app$h (less$b ?v3) ?v2) (fun_app$h ?v0 ?v3)) ) (fun_app$h ?v0 ?v2)) ) (fun_app$h ?v0 ?v1)) ))
(assert (= (= one$ one$) true))
(assert (forall ((?v0 Nat$) (?v1 Nat$) (?v2 Nat$)) (=> (fun_app$a (dvd$ ?v0) (fun_app$b (times$ ?v1) ?v2)) (exists ((?v3 Nat$) (?v4 Nat$)) (and (= ?v0 (fun_app$b (times$ ?v3) ?v4)) (and (fun_app$a (dvd$ ?v3) ?v1) (fun_app$a (dvd$ ?v4) ?v2))) )) ))
(assert (forall ((?v0 Nat$)) (= (not (= ?v0 one$a)) (and (fun_app$a (dvd$ one$a) ?v0) (not (fun_app$a (dvd$ ?v0) one$a)))) ))
(assert (forall ((?v0 Nat$)) (=> (fun_app$a (dvd$ ?v0) one$a) (= ?v0 one$a)) ))
(assert (forall ((?v0 Nat$)) (fun_app$a (dvd$ one$a) ?v0) ))
(assert (forall ((?v0 Nat$)) (not (and (fun_app$a (dvd$ ?v0) one$a) (not (fun_app$a (dvd$ one$a) ?v0)))) ))
(assert (forall ((?v0 Enat$)) (= (times$b ?v0 one$b) ?v0) ))
(assert (forall ((?v0 Nat$)) (= (fun_app$b (times$ ?v0) one$a) ?v0) ))
(assert (forall ((?v0 Enat$)) (= (times$b one$b ?v0) ?v0) ))
(assert (forall ((?v0 Nat$)) (= (fun_app$b (times$ one$a) ?v0) ?v0) ))
(assert (forall ((?v0 Enat$) (?v1 Enat$)) (= (times$b ?v0 ?v1) (times$b ?v1 ?v0)) ))
(assert (forall ((?v0 Nat$) (?v1 Nat$)) (= (fun_app$b (times$ ?v0) ?v1) (fun_app$b (times$ ?v1) ?v0)) ))
(assert (forall ((?v0 Enat$) (?v1 Enat$) (?v2 Enat$)) (= (times$b ?v0 (times$b ?v1 ?v2)) (times$b ?v1 (times$b ?v0 ?v2))) ))
(assert (forall ((?v0 Nat$) (?v1 Nat$) (?v2 Nat$)) (= (fun_app$b (times$ ?v0) (fun_app$b (times$ ?v1) ?v2)) (fun_app$b (times$ ?v1) (fun_app$b (times$ ?v0) ?v2))) ))
(assert (forall ((?v0 Enat$) (?v1 Enat$) (?v2 Enat$)) (= (times$b (times$b ?v0 ?v1) ?v2) (times$b ?v0 (times$b ?v1 ?v2))) ))
(assert (forall ((?v0 Nat$) (?v1 Nat$) (?v2 Nat$)) (= (fun_app$b (times$ (fun_app$b (times$ ?v0) ?v1)) ?v2) (fun_app$b (times$ ?v0) (fun_app$b (times$ ?v1) ?v2))) ))
(assert (forall ((?v0 Enat$) (?v1 Enat$) (?v2 Enat$)) (= (times$b (times$b ?v0 ?v1) ?v2) (times$b ?v0 (times$b ?v1 ?v2))) ))
(assert (forall ((?v0 Nat$) (?v1 Nat$) (?v2 Nat$)) (= (fun_app$b (times$ (fun_app$b (times$ ?v0) ?v1)) ?v2) (fun_app$b (times$ ?v0) (fun_app$b (times$ ?v1) ?v2))) ))
(assert (forall ((?v0 Enat$)) (= (= one$b ?v0) (= ?v0 one$b)) ))
(assert (forall ((?v0 Nat$)) (= (= one$a ?v0) (= ?v0 one$a)) ))
(assert (forall ((?v0 Enat$)) (= (times$b one$b ?v0) ?v0) ))
(assert (forall ((?v0 Nat$)) (= (fun_app$b (times$ one$a) ?v0) ?v0) ))
(assert (forall ((?v0 Enat$)) (= (times$b ?v0 one$b) ?v0) ))
(assert (forall ((?v0 Nat$)) (= (fun_app$b (times$ ?v0) one$a) ?v0) ))
(assert (monotone$ less_eq$ less_eq$ (times$ (numeral$ (bit1$ (bit0$ one$))))))
(assert (monotone$ less_eq$ less_eq$ (times$ (numeral$ (bit0$ one$)))))
(assert (monotone$ less_eq$ less_eq$ (times$ (numeral$ (bit1$ one$)))))
(assert (forall ((?v0 Nat$)) (fun_app$a (fun_app$d less_eq$ ?v0) ?v0) ))
(assert (forall ((?v0 Num$)) (less_eq$a ?v0 ?v0) ))
(assert (forall ((?v0 Enat$)) (fun_app$h (less_eq$b ?v0) ?v0) ))
(assert (forall ((?v0 Nat$) (?v1 Nat$)) (= (= ?v0 ?v1) (and (fun_app$a (fun_app$d less_eq$ ?v0) ?v1) (fun_app$a (fun_app$d less_eq$ ?v1) ?v0))) ))
(assert (forall ((?v0 Num$) (?v1 Num$)) (= (= ?v0 ?v1) (and (less_eq$a ?v0 ?v1) (less_eq$a ?v1 ?v0))) ))
(assert (forall ((?v0 Enat$) (?v1 Enat$)) (= (= ?v0 ?v1) (and (fun_app$h (less_eq$b ?v0) ?v1) (fun_app$h (less_eq$b ?v1) ?v0))) ))
(check-sat)
(exit)

